s td 27 55 81
b 1 1 2 9 10 12 13 14 15 16 17 18 19 20 21 24 25 26 27 29 30 31 32 33 34 35 38 39 40 41 42 43 44 45 47 48 52 54 55 59 60 61 62 63 65 66 68 69 71 72 73 74 76 77 78 81
b 2 1 9 10 12 13 14 15 16 17 18 19 20 21 24 25 26 27 29 30 31 32 33 34 35 38 39 40 41 42 43 44 45 46 47 48 52 54 55 59 60 61 62 63 65 66 68 69 71 72 73 74 76 77 78 81
b 3 3 9 12 13 14 15 16 17 20 21 24 26 27 29 30 31 32 33 34 38 40 41 42 45 46 47 48 52 54 61 65 66 69 71 73 74 76 78
b 4 3 9 14 15 16 20 21 26 27 32 33 38 40 46 47 48 61 65 66 69 80
b 5 1 9 10 12 13 14 15 16 17 18 19 20 21 24 25 26 27 29 30 31 32 33 34 35 38 39 40 41 42 43 44 45 47 48 52 54 55 58 59 60 61 62 63 65 66 68 69 71 72 73 74 76 77 78 81
b 6 4 9 13 14 15 16 19 20 21 24 25 26 29 31 35 38 39 41 42 43 45 47 48 52 55 58 59 60 62 65 66 72 73 74 76 77 78 81
b 7 4 9 11 13 14 19 20 26 31 35 39 42 47 52 55 58 65 73 76 77 81
b 8 1 9 10 12 13 14 15 16 17 18 19 20 21 24 25 26 27 29 30 31 32 33 34 35 37 38 39 40 41 42 43 44 45 47 48 52 54 55 59 60 61 62 63 65 66 68 69 71 72 73 74 76 77 78 81
b 9 8 9 10 12 13 16 19 20 24 25 27 29 30 31 33 34 35 37 38 42 43 44 47 48 54 55 60 61 62 63 65 66 68 69 73 74 78 81
b 10 5 8 9 10 12 19 20 25 29 30 33 37 38 42 43 48 55 61 68 73 74
b 11 1 6 9 10 12 13 14 15 16 17 18 19 20 21 24 25 26 27 29 30 31 32 33 34 35 38 39 40 41 42 43 44 45 47 48 52 54 55 59 60 61 62 63 65 66 68 69 71 72 73 74 76 77 78 81
b 12 1 6 9 10 13 14 15 16 17 19 20 25 29 30 33 34 35 38 40 41 44 45 47 48 52 59 60 61 62 63 67 69 71 73 76 77 78 81
b 13 6 10 13 14 15 17 19 20 25 33 34 38 40 41 56 62 63 67 76 78 81
b 14 1 9 10 12 13 14 15 16 17 18 19 20 21 24 25 26 27 28 29 30 31 32 33 34 35 38 39 40 41 42 43 44 45 47 48 52 54 55 59 60 61 62 63 65 66 68 69 71 72 73 74 76 77 78 81
b 15 12 13 14 15 16 17 18 19 20 21 22 24 25 27 28 29 32 33 39 42 43 44 45 47 48 54 59 60 61 63 65 68 71 73 76 77 78 81
b 16 7 15 16 20 22 25 28 29 32 39 42 44 54 59 61 65 68 71 76 78 81
b 17 1 9 10 12 13 14 15 16 17 18 19 20 21 24 25 26 27 29 30 31 32 33 34 35 38 39 40 41 42 43 44 45 47 48 52 54 55 59 60 61 62 63 65 66 68 69 71 72 73 74 75 76 77 78 81
b 18 1 9 10 12 13 14 16 20 21 25 27 29 30 31 32 33 35 36 39 40 41 42 43 44 45 47 48 54 55 62 63 66 71 72 75 76 77 78
b 19 1 9 12 13 21 23 25 29 33 36 39 40 44 45 47 54 55 62 66 75 76
b 20 2 9 10 12 13 15 17 19 20 21 24 27 29 30 31 32 38 39 40 44 47 48 51 52 55 59 60 62 63 65 68 69 71 72 74 76 77 78
b 21 2 12 19 24 30 32 38 40 44 47 48 49 51 52 55 59 63 65 72 76 78
b 22 1 9 10 12 13 14 15 16 17 18 19 20 21 24 25 26 27 29 30 31 32 33 34 35 38 39 40 41 42 43 44 45 47 48 52 54 55 57 59 60 61 62 63 65 66 68 69 71 72 73 74 76 77 78 81
b 23 10 13 15 17 18 19 20 24 26 27 29 30 32 33 35 39 40 41 42 43 44 45 47 48 50 52 54 55 57 59 61 62 66 69 74 77 78 81
b 24 17 19 20 26 27 30 35 39 40 43 45 47 50 53 54 57 59 61 62 74 78
b 25 1 9 10 12 13 14 15 16 17 18 19 20 21 24 25 26 27 29 30 31 32 33 34 35 38 39 40 41 42 43 44 45 47 48 52 54 55 59 60 61 62 63 65 66 68 69 71 72 73 74 76 77 78 79 81
b 26 9 13 15 16 18 19 20 21 24 25 26 27 30 33 34 35 40 41 42 44 45 48 54 55 59 62 63 64 65 68 69 71 72 73 74 76 77 79
b 27 13 18 20 21 25 35 40 41 48 54 55 59 63 64 65 69 70 71 73 74 79
1 2
1 5
1 8
1 11
1 14
1 17
1 20
1 22
1 25
2 3
3 4
5 6
6 7
8 9
9 10
11 12
12 13
14 15
15 16
17 18
18 19
20 21
22 23
23 24
25 26
26 27
